NAME: Test TSP file problem
TYPE: TSP
COMMENT: Test TSP file problem with full Matrix distance or duration
DIMENSION: 5
EDGE_WEIGHT_TYPE: EXPLICIT
EDGE_WEIGHT_FORMAT: FULL_MATRIX
DISPLAY_DATA_TYPE: TWOD_DISPLAY
EDGE_WEIGHT_SECTION 
0.0 572525.9 692170.7 912263.2 226953.8 
572881.0 0.0 581467.9 342837.3 550441.6 
691377.6 583940.1 0.0 383578.5 465676.3 
913039.4 345617.4 384236.1 0.0 687737.3 
226688.6 551149.9 466883.5 687958.3 0.0 
DISPLAY_DATA_SECTION 
1 43.92163712834673 4.81201171875
2 44.83249999349062 -0.560302734375
3 48.850258199721495 2.362060546875
4 47.19717795172789 -1.5380859375
5 45.729191061299915 4.844970703125
EOF